100
128
33
20
33
50
52
8
7
11
21
27
63
21
26
9
39
50
8
22
12
51
48
28
31
16
48
6
59
36
48
4
29
7
54
49
53
48
60
43
47
48
23
28
34
17
19
42
54
26
18
55
32
23
13
14
50
33
18
23
54
42
47
38
41
14
4
26
55
14
16
32
16
55
44
41
34
60
32
29
30
46
17
17
18
5
15
35
25
32
2
20
44
28
34
20
16
57
53
24
44
57